1000 1000 291777279250
541 344 413 266 543 367 526 286 614 348 673 475 562 530 609 540 486 272 623 266 341 340 531 571 674 560 509 650 474 419
745 301 294 341 388 701 707 706 289 592 431 362 439 638 375 274 634 377 306 714 336 296 479 589 496 497 389 332 285 503
403045 103544 121422 90706 210684 257267 371882 201916 177446 206016 290063 171950 246718 338140 228375 147960 308124 102544 190638 189924 114576 100640 254349 336319 334304 278320 198001 215800 135090 210757476442
439083 119838 142060 94662 259680 267319 356166 257662 221253 271603 274611 215967 225573 361330 275148 167696 407499 102704 230008 177298 145523 119322 304671 448908 433097 308444 188338 216700 150114 265252072046
